10	5
0	3	1	3	2
1	2	8	5
2	2	5	4
3	1	7
4	2	8	9
5	4	9	10	6	7
6	1	11
7	1	11
8	1	11
9	1	11
10	1	11
11	0
0	0	0	0	0	0	0
1	3	0	0	3	1	0
2	2	4	0	4	4	0
3	3	1	3	1	1	1
4	5	5	0	1	4	0
5	9	4	3	3	5	1
6	10	2	1	3	4	5
7	8	3	1	5	0	5
8	1	0	5	1	2	2
9	6	5	0	5	4	0
10	10	4	2	0	1	4
11	0	0	0	0	0	0
6	6	6	6	5
